NAME : XML100_1352_17
DIMENSION : 101
NB_CLUSTERS : 4
CLUSTERING_ALG : KMeans
CLUSTERING_PARAMS : k(3)
CLUSTERS
1 0
2 3 4 5 7 10 11 12 17 18 20 22 24 25 28 31 34 37 38 41 44 45 46 57 58 61 62 66 71 74 75 77 81 82 83 84 86 87 90 91 94 97 98 100
3 1 2 8 9 15 19 26 29 39 40 51 52 53 54 55 56 60 63 65 68 69 70 72 73 78 80 85 88 96
4 6 13 14 16 21 23 27 30 32 33 35 36 42 43 47 48 49 50 59 64 67 76 79 89 92 93 95 99
EOF